924
1 0 5 463 0 924 1 923 1 922 1 921 1
2 0 5 464 1 579 1 530 1 867 1 883 1
3 0 5 465 1 810 1 839 1 621 1 567 1
4 0 5 466 1 835 1 463 1 829 1 749 1
5 0 5 467 1 653 1 498 1 738 1 686 1
6 0 5 468 1 623 1 800 1 793 1 698 1
7 0 5 469 1 641 1 522 1 790 1 716 1
8 0 5 470 1 720 1 763 1 476 1 478 1
9 0 5 471 1 782 1 471 1 723 1 506 1
10 0 5 472 1 510 1 675 1 762 1 632 1
11 0 5 473 1 615 1 799 1 638 1 884 1
12 0 5 474 1 832 1 869 1 633 1 573 1
13 0 5 475 1 472 1 603 1 620 1 510 1
14 0 5 476 1 478 1 539 1 774 1 878 1
15 0 5 477 1 751 1 576 1 469 1 674 1
16 0 5 478 1 539 1 483 1 774 1 878 1
17 0 5 479 1 777 1 603 1 548 1 599 1
18 0 5 480 1 677 1 572 1 818 1 789 1
19 0 5 481 1 701 1 670 1 650 1 484 1
20 0 5 482 1 518 1 801 1 583 1 719 1
21 0 5 483 1 774 1 878 1 704 1 589 1
22 0 5 484 1 809 1 508 1 582 1 695 1
23 0 5 485 1 862 1 595 1 558 1 754 1
24 0 5 486 1 733 1 614 1 684 1 501 1
25 0 5 487 1 556 1 545 1 692 1 759 1
26 0 5 488 1 559 1 876 1 493 1 816 1
27 0 5 489 1 813 1 710 1 745 1 815 1
28 0 5 490 1 871 1 823 1 750 1 655 1
29 0 5 491 1 712 1 823 1 496 1 856 1
30 0 5 492 1 620 1 472 1 675 1 470 1
31 0 5 493 1 816 1 876 1 559 1 866 1
32 0 5 494 1 825 1 475 1 571 1 598 1
33 0 5 495 1 525 1 596 1 501 1 502 1
34 0 5 496 1 492 1 612 1 620 1 564 1
35 0 5 497 1 693 1 687 1 660 1 504 1
36 0 5 498 1 686 1 738 1 519 1 753 1
37 0 5 499 1 654 1 521 1 812 1 807 1
38 0 5 500 1 483 1 539 1 478 1 774 1
39 0 5 501 1 796 1 502 1 574 1 883 1
40 0 5 502 1 530 1 867 1 883 1 574 1
41 0 5 503 1 646 1 746 1 586 1 538 1
42 0 5 504 1 687 1 731 1 795 1 542 1
43 0 5 505 1 691 1 538 1 695 1 860 1
44 0 5 506 1 497 1 693 1 687 1 660 1
45 0 5 507 1 811 1 698 1 468 1 851 1
46 0 5 508 1 695 1 505 1 649 1 860 1
47 0 5 509 1 610 1 616 1 726 1 552 1
48 0 5 510 1 762 1 632 1 768 1 700 1
49 0 5 511 1 808 1 561 1 655 1 713 1
50 0 5 512 1 550 1 533 1 761 1 765 1
51 0 5 513 1 846 1 757 1 756 1 668 1
52 0 5 514 1 852 1 550 1 464 1 644 1
53 0 5 515 1 479 1 777 1 843 1 603 1
54 0 5 516 1 776 1 549 1 594 1 523 1
55 0 5 517 1 643 1 628 1 802 1 771 1
56 0 5 518 1 583 1 513 1 719 1 757 1
57 0 5 519 1 604 1 715 1 699 1 833 1
58 0 5 520 1 511 1 808 1 520 1 561 1
59 0 5 521 1 819 1 597 1 583 1 807 1
60 0 5 522 1 716 1 790 1 565 1 820 1
61 0 5 523 1 516 1 594 1 776 1 549 1
62 0 5 524 1 681 1 737 1 474 1 832 1
63 0 5 525 1 502 1 796 1 673 1 530 1
64 0 5 526 1 584 1 614 1 733 1 684 1
65 0 5 527 1 671 1 672 1 648 1 563 1
66 0 5 528 1 859 1 708 1 826 1 705 1
67 0 5 529 1 740 1 788 1 831 1 500 1
68 0 5 530 1 528 1 657 1 826 1 859 1
69 0 5 531 1 477 1 534 1 751 1 576 1
70 0 5 532 1 685 1 622 1 857 1 767 1
71 0 5 533 1 765 1 791 1 664 1 640 1
72 0 5 534 1 576 1 751 1 674 1 469 1
73 0 5 535 1 666 1 572 1 828 1 635 1
74 0 5 536 1 728 1 843 1 550 1 548 1
75 0 5 537 1 857 1 622 1 531 1 767 1
76 0 5 538 1 691 1 755 1 503 1 689 1
77 0 5 539 1 774 1 878 1 704 1 829 1
78 0 5 540 1 537 1 685 1 857 1 622 1
79 0 5 541 1 694 1 725 1 642 1 863 1
80 0 5 542 1 660 1 693 1 547 1 687 1
81 0 5 543 1 684 1 747 1 855 1 785 1
82 0 5 544 1 660 1 547 1 850 1 557 1
83 0 5 545 1 759 1 692 1 822 1 717 1
84 0 5 546 1 817 1 669 1 562 1 720 1
85 0 5 547 1 850 1 557 1 660 1 517 1
86 0 5 548 1 791 1 765 1 599 1 640 1
87 0 5 549 1 798 1 776 1 676 1 607 1
88 0 5 550 1 533 1 548 1 765 1 791 1
89 0 5 551 1 680 1 527 1 672 1 546 1
90 0 5 552 1 629 1 721 1 847 1 872 1
91 0 5 553 1 659 1 768 1 700 1 784 1
92 0 5 554 1 593 1 835 1 864 1 570 1
93 0 5 555 1 802 1 628 1 729 1 773 1
94 0 5 556 1 692 1 759 1 667 1 822 1
95 0 5 557 1 643 1 628 1 802 1 771 1
96 0 5 558 1 493 1 559 1 876 1 862 1
97 0 5 559 1 816 1 876 1 722 1 705 1
98 0 5 560 1 612 1 560 1 838 1 492 1
99 0 5 561 1 713 1 697 1 753 1 652 1
100 0 5 562 1 647 1 763 1 638 1 476 1
101 0 5 563 1 608 1 473 1 781 1 615 1
102 0 5 564 1 470 1 720 1 763 1 788 1
103 0 5 565 1 685 1 537 1 532 1 622 1
104 0 5 566 1 683 1 585 1 523 1 516 1
105 0 5 567 1 690 1 621 1 755 1 689 1
106 0 5 568 1 858 1 844 1 480 1 824 1
107 0 5 569 1 760 1 792 1 874 1 626 1
108 0 5 570 1 593 1 835 1 778 1 486 1
109 0 5 571 1 711 1 742 1 634 1 510 1
110 0 5 572 1 635 1 818 1 489 1 580 1
111 0 5 573 1 498 1 653 1 686 1 738 1
112 0 5 574 1 574 1 657 1 826 1 528 1
113 0 5 575 1 598 1 475 1 603 1 620 1
114 0 5 576 1 674 1 469 1 522 1 641 1
115 0 5 577 1 811 1 507 1 698 1 607 1
116 0 5 578 1 794 1 861 1 564 1 612 1
117 0 5 579 1 590 1 528 1 657 1 708 1
118 0 5 580 1 710 1 813 1 745 1 625 1
119 0 5 581 1 484 1 809 1 508 1 695 1
120 0 5 582 1 695 1 586 1 505 1 538 1
121 0 5 583 1 757 1 846 1 668 1 724 1
122 0 5 584 1 696 1 656 1 636 1 482 1
123 0 5 585 1 549 1 776 1 516 1 607 1
124 0 5 586 1 538 1 691 1 503 1 868 1
125 0 5 587 1 465 1 810 1 839 1 621 1
126 0 5 588 1 688 1 775 1 877 1 786 1
127 0 5 589 1 794 1 861 1 612 1 564 1
128 0 5 590 1 708 1 705 1 859 1 770 1
129 0 5 591 1 871 1 490 1 750 1 655 1
130 0 5 592 1 726 1 639 1 758 1 600 1
131 0 5 593 1 835 1 764 1 778 1 602 1
132 0 5 594 1 776 1 516 1 717 1 676 1
133 0 5 595 1 754 1 536 1 870 1 515 1
134 0 5 596 1 673 1 796 1 502 1 845 1
135 0 5 597 1 864 1 570 1 554 1 778 1
136 0 5 598 1 603 1 472 1 620 1 742 1
137 0 5 599 1 780 1 553 1 485 1 640 1
138 0 5 600 1 847 1 872 1 839 1 507 1
139 0 5 601 1 633 1 832 1 474 1 467 1
140 0 5 602 1 743 1 855 1 543 1 747 1
141 0 5 603 1 742 1 510 1 553 1 762 1
142 0 5 604 1 715 1 699 1 833 1 524 1
143 0 5 605 1 486 1 837 1 727 1 739 1
144 0 5 606 1 678 1 744 1 509 1 592 1
145 0 5 607 1 487 1 662 1 556 1 545 1
146 0 5 608 1 781 1 569 1 615 1 799 1
147 0 5 609 1 881 1 731 1 880 1 471 1
148 0 5 610 1 616 1 552 1 639 1 629 1
149 0 5 611 1 841 1 627 1 830 1 674 1
150 0 5 612 1 564 1 492 1 470 1 720 1
151 0 5 613 1 546 1 680 1 817 1 669 1
152 0 5 614 1 733 1 526 1 584 1 684 1
153 0 5 615 1 799 1 884 1 466 1 626 1
154 0 5 616 1 552 1 629 1 600 1 721 1
155 0 5 617 1 844 1 858 1 665 1 824 1
156 0 5 618 1 858 1 844 1 824 1 665 1
157 0 5 619 1 596 1 525 1 733 1 673 1
158 0 5 620 1 675 1 510 1 632 1 762 1
159 0 5 621 1 567 1 690 1 752 1 755 1
160 0 5 622 1 767 1 531 1 534 1 477 1
161 0 5 623 1 800 1 793 1 698 1 606 1
162 0 5 624 1 513 1 583 1 717 1 846 1
163 0 5 625 1 783 1 815 1 631 1 503 1
164 0 5 626 1 626 1 463 1 749 1 551 1
165 0 5 627 1 830 1 522 1 854 1 716 1
166 0 5 628 1 771 1 725 1 609 1 642 1
167 0 5 629 1 721 1 847 1 872 1 552 1
168 0 5 630 1 611 1 841 1 534 1 627 1
169 0 5 631 1 746 1 752 1 621 1 567 1
170 0 5 632 1 700 1 768 1 659 1 682 1
171 0 5 633 1 467 1 573 1 653 1 869 1
172 0 5 634 1 706 1 702 1 655 1 591 1
173 0 5 635 1 489 1 818 1 580 1 813 1
174 0 5 636 1 624 1 518 1 513 1 583 1
175 0 5 637 1 853 1 734 1 715 1 833 1
176 0 5 638 1 884 1 466 1 478 1 554 1
177 0 5 639 1 600 1 847 1 552 1 872 1
178 0 5 640 1 558 1 488 1 485 1 493 1
179 0 5 641 1 790 1 716 1 565 1 820 1
180 0 5 642 1 849 1 731 1 881 1 842 1
181 0 5 643 1 642 1 771 1 609 1 849 1
182 0 5 644 1 852 1 464 1 502 1 579 1
183 0 5 645 1 699 1 715 1 524 1 833 1
184 0 5 646 1 586 1 538 1 691 1 582 1
185 0 5 647 1 638 1 466 1 884 1 476 1
186 0 5 648 1 473 1 615 1 799 1 647 1
187 0 5 649 1 844 1 617 1 858 1 824 1
188 0 5 650 1 663 1 582 1 695 1 646 1
189 0 5 651 1 588 1 471 1 880 1 842 1
190 0 5 652 1 637 1 853 1 715 1 833 1
191 0 5 653 1 738 1 703 1 686 1 519 1
192 0 5 654 1 812 1 807 1 819 1 597 1
193 0 5 655 1 591 1 490 1 871 1 754 1
194 0 5 656 1 482 1 845 1 518 1 801 1
195 0 5 657 1 826 1 859 1 714 1 770 1
196 0 5 658 1 748 1 736 1 481 1 804 1
197 0 5 659 1 784 1 879 1 682 1 491 1
198 0 5 660 1 547 1 850 1 557 1 517 1
199 0 5 661 1 475 1 598 1 472 1 603 1
200 0 5 662 1 545 1 556 1 759 1 692 1
201 0 5 663 1 582 1 695 1 646 1 505 1
202 0 5 664 1 488 1 558 1 876 1 559 1
203 0 5 665 1 805 1 735 1 772 1 824 1
204 0 5 666 1 828 1 736 1 635 1 489 1
205 0 5 667 1 758 1 566 1 717 1 756 1
206 0 5 668 1 787 1 785 1 719 1 513 1
207 0 5 669 1 562 1 720 1 647 1 763 1
208 0 5 670 1 650 1 663 1 582 1 695 1
209 0 5 671 1 563 1 648 1 608 1 473 1
210 0 5 672 1 648 1 473 1 669 1 615 1
211 0 5 673 1 845 1 530 1 867 1 482 1
212 0 5 674 1 522 1 641 1 716 1 790 1
213 0 5 675 1 632 1 762 1 700 1 768 1
214 0 5 676 1 584 1 526 1 733 1 696 1
215 0 5 677 1 818 1 635 1 489 1 580 1
216 0 5 678 1 509 1 610 1 592 1 616 1
217 0 5 679 1 821 1 666 1 658 1 828 1
218 0 5 680 1 672 1 817 1 648 1 669 1
219 0 5 681 1 474 1 832 1 601 1 869 1
220 0 5 682 1 682 1 491 1 712 1 823 1
221 0 5 683 1 585 1 516 1 776 1 523 1
222 0 5 684 1 747 1 656 1 814 1 521 1
223 0 5 685 1 622 1 857 1 767 1 630 1
224 0 5 686 1 703 1 519 1 738 1 753 1
225 0 5 687 1 504 1 542 1 795 1 471 1
226 0 5 688 1 786 1 709 1 877 1 775 1
227 0 5 689 1 572 1 677 1 635 1 818 1
228 0 5 690 1 567 1 755 1 621 1 689 1
229 0 5 691 1 755 1 538 1 689 1 586 1
230 0 5 692 1 667 1 822 1 758 1 717 1
231 0 5 693 1 687 1 504 1 542 1 497 1
232 0 5 694 1 651 1 849 1 863 1 588 1
233 0 5 695 1 505 1 538 1 691 1 586 1
234 0 5 696 1 636 1 482 1 624 1 845 1
235 0 5 697 1 652 1 753 1 713 1 561 1
236 0 5 698 1 851 1 692 1 744 1 667 1
237 0 5 699 1 524 1 833 1 681 1 737 1
238 0 5 700 1 659 1 682 1 879 1 784 1
239 0 5 701 1 650 1 484 1 663 1 508 1
240 0 5 702 1 655 1 591 1 490 1 871 1
241 0 5 703 1 519 1 827 1 753 1 686 1
242 0 5 704 1 829 1 774 1 878 1 885 1
243 0 5 705 1 722 1 727 1 770 1 866 1
244 0 5 706 1 702 1 655 1 591 1 754 1
245 0 5 707 1 865 1 520 1 474 1 511 1
246 0 5 708 1 705 1 859 1 770 1 722 1
247 0 5 709 1 544 1 660 1 547 1 850 1
248 0 5 710 1 625 1 745 1 783 1 815 1
249 0 5 711 1 634 1 706 1 702 1 655 1
250 0 5 712 1 823 1 496 1 718 1 491 1
251 0 5 713 1 697 1 753 1 652 1 645 1
252 0 5 714 1 779 1 770 1 727 1 739 1
253 0 5 715 1 833 1 524 1 699 1 737 1
254 0 5 716 1 790 1 565 1 820 1 532 1
255 0 5 717 1 756 1 846 1 523 1 724 1
256 0 5 718 1 492 1 612 1 620 1 564 1
257 0 5 719 1 668 1 757 1 787 1 513 1
258 0 5 720 1 763 1 476 1 478 1 539 1
259 0 5 721 1 468 1 623 1 639 1 629 1
260 0 5 722 1 727 1 866 1 514 1 644 1
261 0 5 723 1 506 1 497 1 693 1 660 1
262 0 5 724 1 594 1 516 1 523 1 776 1
263 0 5 725 1 863 1 609 1 880 1 471 1
264 0 5 726 1 639 1 600 1 616 1 847 1
265 0 5 727 1 739 1 605 1 837 1 834 1
266 0 5 728 1 843 1 550 1 479 1 548 1
267 0 5 729 1 628 1 802 1 771 1 725 1
268 0 5 730 1 803 1 827 1 794 1 532 1
269 0 5 731 1 542 1 709 1 544 1 660 1
270 0 5 732 1 527 1 671 1 672 1 648 1
271 0 5 733 1 656 1 482 1 636 1 518 1
272 0 5 734 1 707 1 520 1 865 1 681 1
273 0 5 735 1 769 1 875 1 840 1 625 1
274 0 5 736 1 804 1 813 1 670 1 650 1
275 0 5 737 1 601 1 474 1 633 1 869 1
276 0 5 738 1 703 1 686 1 519 1 753 1
277 0 5 739 1 605 1 486 1 837 1 834 1
278 0 5 740 1 788 1 831 1 500 1 478 1
279 0 5 741 1 541 1 725 1 694 1 642 1
280 0 5 742 1 553 1 659 1 700 1 485 1
281 0 5 743 1 855 1 882 1 499 1 747 1
282 0 5 744 1 592 1 726 1 639 1 600 1
283 0 5 745 1 815 1 783 1 503 1 868 1
284 0 5 746 1 752 1 621 1 567 1 690 1
285 0 5 747 1 814 1 521 1 654 1 819 1
286 0 5 748 1 481 1 804 1 701 1 670 1
287 0 5 749 1 680 1 551 1 527 1 546 1
288 0 5 750 1 494 1 825 1 475 1 598 1
289 0 5 751 1 469 1 674 1 641 1 522 1
290 0 5 752 1 621 1 567 1 690 1 689 1
291 0 5 753 1 699 1 715 1 833 1 524 1
292 0 5 754 1 479 1 728 1 515 1 598 1
293 0 5 755 1 572 1 677 1 789 1 689 1
294 0 5 756 1 523 1 516 1 724 1 594 1
295 0 5 757 1 724 1 594 1 486 1 785 1
296 0 5 758 1 566 1 683 1 756 1 717 1
297 0 5 759 1 822 1 717 1 756 1 846 1
298 0 5 760 1 874 1 792 1 626 1 873 1
299 0 5 761 1 550 1 843 1 533 1 548 1
300 0 5 762 1 768 1 700 1 682 1 879 1
301 0 5 763 1 476 1 478 1 539 1 774 1
302 0 5 764 1 743 1 543 1 602 1 499 1
303 0 5 765 1 664 1 640 1 780 1 488 1
304 0 5 766 1 487 1 662 1 848 1 556 1
305 0 5 767 1 534 1 477 1 576 1 751 1
306 0 5 768 1 682 1 879 1 491 1 712 1
307 0 5 769 1 840 1 587 1 625 1 769 1
308 0 5 770 1 727 1 779 1 714 1 739 1
309 0 5 771 1 609 1 642 1 863 1 731 1
310 0 5 772 1 581 1 484 1 809 1 508 1
311 0 5 773 1 802 1 628 1 771 1 725 1
312 0 5 774 1 704 1 829 1 774 1 885 1
313 0 5 775 1 709 1 877 1 544 1 660 1
314 0 5 776 1 549 1 607 1 798 1 676 1
315 0 5 777 1 599 1 742 1 791 1 780 1
316 0 5 778 1 684 1 747 1 543 1 882 1
317 0 5 779 1 739 1 727 1 605 1 486 1
318 0 5 780 1 485 1 558 1 862 1 493 1
319 0 5 781 1 569 1 760 1 799 1 792 1
320 0 5 782 1 723 1 506 1 544 1 497 1
321 0 5 783 1 631 1 503 1 868 1 746 1
322 0 5 784 1 491 1 682 1 879 1 823 1
323 0 5 785 1 614 1 526 1 733 1 684 1
324 0 5 786 1 544 1 660 1 547 1 850 1
325 0 5 787 1 619 1 733 1 596 1 584 1
326 0 5 788 1 831 1 500 1 478 1 483 1
327 0 5 789 1 677 1 572 1 818 1 635 1
328 0 5 790 1 565 1 716 1 820 1 532 1
329 0 5 791 1 640 1 664 1 780 1 558 1
330 0 5 792 1 626 1 873 1 463 1 749 1
331 0 5 793 1 606 1 678 1 851 1 744 1
332 0 5 794 1 861 1 529 1 564 1 740 1
333 0 5 795 1 802 1 628 1 729 1 773 1
334 0 5 796 1 883 1 530 1 574 1 867 1
335 0 5 797 1 821 1 679 1 666 1 828 1
336 0 5 798 1 848 1 662 1 487 1 766 1
337 0 5 799 1 466 1 884 1 626 1 873 1
338 0 5 800 1 793 1 698 1 606 1 851 1
339 0 5 801 1 719 1 513 1 668 1 518 1
340 0 5 802 1 725 1 771 1 863 1 609 1
341 0 5 803 1 836 1 630 1 685 1 611 1
342 0 5 804 1 670 1 650 1 663 1 582 1
343 0 5 805 1 772 1 581 1 736 1 484 1
344 0 5 806 1 527 1 732 1 671 1 672 1
345 0 5 807 1 554 1 864 1 570 1 593 1
346 0 5 808 1 561 1 713 1 697 1 753 1
347 0 5 809 1 508 1 695 1 505 1 649 1
348 0 5 810 1 839 1 621 1 567 1 690 1
349 0 5 811 1 698 1 556 1 851 1 692 1
350 0 5 812 1 807 1 819 1 554 1 597 1
351 0 5 813 1 745 1 710 1 815 1 783 1
352 0 5 814 1 521 1 654 1 819 1 583 1
353 0 5 815 1 503 1 868 1 631 1 646 1
354 0 5 816 1 739 1 605 1 722 1 512 1
355 0 5 817 1 669 1 562 1 720 1 647 1
356 0 5 818 1 635 1 489 1 580 1 710 1
357 0 5 819 1 597 1 807 1 570 1 864 1
358 0 5 820 1 537 1 540 1 685 1 857 1
359 0 5 821 1 658 1 828 1 748 1 736 1
360 0 5 822 1 717 1 756 1 846 1 523 1
361 0 5 823 1 661 1 475 1 856 1 598 1
362 0 5 824 1 735 1 769 1 875 1 818 1
363 0 5 825 1 571 1 603 1 711 1 472 1
364 0 5 826 1 714 1 859 1 770 1 779 1
365 0 5 827 1 803 1 836 1 685 1 532 1
366 0 5 828 1 736 1 489 1 635 1 804 1
367 0 5 829 1 613 1 546 1 680 1 551 1
368 0 5 830 1 854 1 716 1 730 1 522 1
369 0 5 831 1 500 1 483 1 478 1 539 1
370 0 5 832 1 573 1 467 1 498 1 653 1
371 0 5 833 1 737 1 681 1 601 1 474 1
372 0 5 834 1 501 1 502 1 656 1 796 1
373 0 5 835 1 764 1 778 1 602 1 864 1
374 0 5 836 1 630 1 611 1 767 1 622 1
375 0 5 837 1 495 1 525 1 501 1 796 1
376 0 5 838 1 612 1 564 1 560 1 492 1
377 0 5 839 1 567 1 690 1 872 1 649 1
378 0 5 840 1 587 1 465 1 625 1 810 1
379 0 5 841 1 627 1 830 1 674 1 522 1
380 0 5 842 1 775 1 877 1 709 1 786 1
381 0 5 843 1 548 1 533 1 777 1 791 1
382 0 5 844 1 665 1 824 1 805 1 735 1
383 0 5 845 1 801 1 518 1 719 1 624 1
384 0 5 846 1 724 1 523 1 594 1 756 1
385 0 5 847 1 872 1 839 1 577 1 507 1
386 0 5 848 1 662 1 487 1 545 1 556 1
387 0 5 849 1 842 1 881 1 731 1 877 1
388 0 5 850 1 541 1 725 1 741 1 694 1
389 0 5 851 1 744 1 592 1 667 1 726 1
390 0 5 852 1 464 1 502 1 579 1 530 1
391 0 5 853 1 734 1 707 1 571 1 520 1
392 0 5 854 1 716 1 589 1 730 1 578 1
393 0 5 855 1 499 1 882 1 814 1 654 1
394 0 5 856 1 598 1 661 1 575 1 475 1
395 0 5 857 1 531 1 767 1 477 1 534 1
396 0 5 858 1 824 1 665 1 735 1 769 1
397 0 5 859 1 770 1 714 1 705 1 779 1
398 0 5 860 1 666 1 535 1 821 1 679 1
399 0 5 861 1 529 1 740 1 788 1 564 1
400 0 5 862 1 595 1 754 1 536 1 870 1
401 0 5 863 1 880 1 471 1 782 1 723 1
402 0 5 864 1 593 1 835 1 778 1 486 1
403 0 5 865 1 511 1 808 1 520 1 561 1
404 0 5 866 1 852 1 550 1 644 1 464 1
405 0 5 867 1 528 1 657 1 826 1 859 1
406 0 5 868 1 646 1 746 1 586 1 538 1
407 0 5 869 1 573 1 467 1 498 1 653 1
408 0 5 870 1 479 1 777 1 843 1 603 1
409 0 5 871 1 871 1 823 1 750 1 655 1
410 0 5 872 1 872 1 839 1 577 1 507 1
411 0 5 873 1 463 1 626 1 749 1 806 1
412 0 5 874 1 626 1 873 1 463 1 749 1
413 0 5 875 1 840 1 587 1 625 1 769 1
414 0 5 876 1 876 1 816 1 722 1 705 1
415 0 5 877 1 877 1 709 1 544 1 660 1
416 0 5 878 1 704 1 829 1 774 1 885 1
417 0 5 879 1 491 1 682 1 712 1 823 1
418 0 5 880 1 782 1 723 1 471 1 506 1
419 0 5 881 1 542 1 709 1 544 1 731 1
420 0 5 882 1 654 1 521 1 812 1 807 1
421 0 5 883 1 657 1 826 1 528 1 574 1
422 0 5 884 1 463 1 835 1 829 1 749 1
423 0 5 885 1 612 1 838 1 492 1 564 1
424 0 5 886 0 463 1 886 1 887 1 888 1
425 0 5 887 0 463 1 886 1 887 1 888 1
426 0 5 888 0 463 1 886 1 887 1 888 1
427 0 5 889 0 463 1 886 1 887 1 888 1
428 0 5 890 0 463 1 886 1 887 1 888 1
429 0 5 891 0 463 1 886 1 887 1 888 1
430 0 5 892 0 463 1 886 1 887 1 888 1
431 0 5 893 0 463 1 886 1 887 1 888 1
432 0 5 894 0 463 1 886 1 887 1 888 1
433 0 5 895 0 463 1 886 1 887 1 888 1
434 0 5 896 0 463 1 886 1 887 1 888 1
435 0 5 897 0 463 1 886 1 887 1 888 1
436 0 5 898 0 463 1 886 1 887 1 888 1
437 0 5 899 0 463 1 886 1 887 1 888 1
438 0 5 900 0 463 1 886 1 887 1 888 1
439 0 5 901 0 463 1 886 1 887 1 888 1
440 0 5 902 0 463 1 886 1 887 1 888 1
441 0 5 903 0 463 1 886 1 887 1 888 1
442 0 5 904 0 463 1 886 1 887 1 888 1
443 0 5 905 0 463 1 886 1 887 1 888 1
444 0 5 906 0 463 1 886 1 887 1 888 1
445 0 5 907 0 463 1 886 1 887 1 888 1
446 0 5 908 0 463 1 886 1 887 1 888 1
447 0 5 909 0 463 1 886 1 887 1 888 1
448 0 5 910 0 463 1 886 1 887 1 888 1
449 0 5 911 0 463 1 886 1 887 1 888 1
450 0 5 912 0 463 1 886 1 887 1 888 1
451 0 5 913 0 463 1 886 1 887 1 888 1
452 0 5 914 0 463 1 886 1 887 1 888 1
453 0 5 915 0 463 1 886 1 887 1 888 1
454 0 5 916 0 463 1 886 1 887 1 888 1
455 0 5 917 0 463 1 886 1 887 1 888 1
456 0 5 918 0 463 1 886 1 887 1 888 1
457 0 5 919 0 463 1 886 1 887 1 888 1
458 0 5 920 0 463 1 886 1 887 1 888 1
459 0 5 921 0 463 1 886 1 887 1 888 1
460 0 5 922 0 463 1 886 1 887 1 888 1
461 0 5 923 0 463 1 886 1 887 1 888 1
462 0 5 924 0 463 1 886 1 887 1 888 1
463 0 5 1 0 462 1 461 1 460 1 459 1
464 0 5 2 1 390 1 182 1 52 1 404 1
465 0 5 3 1 125 1 378 1 307 1 413 1
466 0 5 4 1 337 1 176 1 185 1 373 1
467 0 5 5 1 171 1 370 1 139 1 12 1
468 0 5 6 1 385 1 259 1 410 1 167 1
469 0 5 7 1 289 1 114 1 15 1 72 1
470 0 5 8 1 102 1 150 1 158 1 30 1
471 0 5 9 1 401 1 9 1 263 1 309 1
472 0 5 10 1 13 1 136 1 30 1 199 1
473 0 5 11 1 186 1 210 1 1 1 101 1
474 0 5 12 1 219 1 275 1 139 1 62 1
475 0 5 13 1 199 1 113 1 361 1 394 1
476 0 5 14 1 301 1 258 1 100 1 8 1
477 0 5 15 1 69 1 305 1 395 1 160 1
478 0 5 16 1 14 1 301 1 38 1 258 1
479 0 5 17 1 53 1 408 1 266 1 292 1
480 0 5 18 1 228 1 105 1 76 1 284 1
481 0 5 19 1 286 1 196 1 274 1 43 1
482 0 5 20 1 194 1 234 1 271 1 122 1
483 0 5 21 1 38 1 16 1 369 1 242 1
484 0 5 22 1 119 1 310 1 343 1 274 1
485 0 5 23 1 318 1 137 1 91 1 280 1
486 0 5 24 1 143 1 277 1 402 1 108 1
487 0 5 25 1 145 1 304 1 386 1 336 1
488 0 5 26 1 202 1 178 1 303 1 329 1
489 0 5 27 1 173 1 356 1 110 1 215 1
490 0 5 28 1 129 1 409 1 193 1 240 1
491 0 5 29 1 322 1 417 1 220 1 306 1
492 0 5 30 1 256 1 34 1 150 1 376 1
493 0 5 31 1 96 1 26 1 178 1 414 1
494 0 5 32 1 288 1 199 1 28 1 292 1
495 0 5 33 1 375 1 277 1 265 1 317 1
496 0 5 34 1 250 1 29 1 423 1 98 1
497 0 5 35 1 44 1 82 1 261 1 198 1
498 0 5 36 1 111 1 370 1 407 1 5 1
499 0 5 37 1 393 1 281 1 222 1 302 1
500 0 5 38 1 369 1 326 1 16 1 278 1
501 0 5 39 1 372 1 33 1 24 1 375 1
502 0 5 40 1 63 1 134 1 39 1 33 1
503 0 5 41 1 353 1 321 1 283 1 163 1
504 0 5 42 1 225 1 231 1 35 1 44 1
505 0 5 43 1 233 1 76 1 120 1 124 1
506 0 5 44 1 261 1 320 1 9 1 418 1
507 0 5 45 1 123 1 385 1 410 1 377 1
508 0 5 46 1 347 1 22 1 43 1 233 1
509 0 5 47 1 216 1 282 1 144 1 130 1
510 0 5 48 1 10 1 141 1 158 1 13 1
511 0 5 49 1 403 1 58 1 12 1 245 1
512 0 5 50 1 143 1 354 1 260 1 277 1
513 0 5 51 1 162 1 56 1 174 1 20 1
514 0 5 52 1 260 1 265 1 97 1 414 1
515 0 5 53 1 292 1 394 1 133 1 74 1
516 0 5 54 1 61 1 262 1 294 1 132 1
517 0 5 55 1 85 1 198 1 82 1 95 1
518 0 5 56 1 20 1 174 1 194 1 234 1
519 0 5 57 1 241 1 224 1 276 1 36 1
520 0 5 58 1 245 1 272 1 58 1 219 1
521 0 5 59 1 352 1 285 1 194 1 316 1
522 0 5 60 1 212 1 7 1 114 1 289 1
523 0 5 61 1 294 1 384 1 255 1 262 1
524 0 5 62 1 237 1 253 1 183 1 142 1
525 0 5 63 1 33 1 157 1 375 1 265 1
526 0 5 64 1 323 1 152 1 214 1 132 1
527 0 5 65 1 270 1 344 1 1 1 89 1
528 0 5 66 1 68 1 405 1 421 1 117 1
529 0 5 67 1 399 1 332 1 1 1 116 1
530 0 5 68 1 40 1 334 1 63 1 134 1
531 0 5 69 1 395 1 160 1 75 1 223 1
532 0 5 70 1 103 1 328 1 254 1 179 1
533 0 5 71 1 88 1 381 1 299 1 50 1
534 0 5 72 1 305 1 69 1 160 1 395 1
535 0 5 73 1 398 1 43 1 229 1 293 1
536 0 5 74 1 133 1 31 1 97 1 400 1
537 0 5 75 1 78 1 358 1 103 1 70 1
538 0 5 76 1 124 1 184 1 41 1 406 1
539 0 5 77 1 16 1 38 1 14 1 301 1
540 0 5 78 1 358 1 328 1 254 1 95 1
541 0 5 79 1 279 1 388 1 85 1 198 1
542 0 5 80 1 419 1 269 1 85 1 42 1
543 0 5 81 1 323 1 316 1 24 1 402 1
544 0 5 82 1 247 1 415 1 313 1 418 1
545 0 5 83 1 200 1 25 1 386 1 145 1
546 0 5 84 1 151 1 89 1 367 1 287 1
547 0 5 85 1 198 1 82 1 247 1 415 1
548 0 5 86 1 381 1 17 1 88 1 266 1
549 0 5 87 1 314 1 54 1 132 1 61 1
550 0 5 88 1 299 1 50 1 52 1 266 1
551 0 5 89 1 1 1 287 1 367 1 422 1
552 0 5 90 1 154 1 148 1 177 1 47 1
553 0 5 91 1 280 1 141 1 48 1 213 1
554 0 5 92 1 345 1 135 1 350 1 357 1
555 0 5 93 1 42 1 225 1 333 1 231 1
556 0 5 94 1 25 1 200 1 145 1 386 1
557 0 5 95 1 85 1 198 1 82 1 80 1
558 0 5 96 1 178 1 318 1 202 1 329 1
559 0 5 97 1 26 1 96 1 414 1 202 1
560 0 5 98 1 98 1 376 1 242 1 416 1
561 0 5 99 1 346 1 49 1 58 1 370 1
562 0 5 100 1 207 1 355 1 8 1 102 1
563 0 5 101 1 209 1 65 1 210 1 218 1
564 0 5 102 1 150 1 376 1 30 1 98 1
565 0 5 103 1 328 1 254 1 179 1 60 1
566 0 5 104 1 296 1 205 1 255 1 360 1
567 0 5 105 1 290 1 159 1 284 1 169 1
568 0 5 106 1 377 1 348 1 3 1 187 1
569 0 5 107 1 319 1 146 1 1 1 153 1
570 0 5 108 1 135 1 345 1 357 1 373 1
571 0 5 109 1 363 1 32 1 13 1 136 1
572 0 5 110 1 227 1 327 1 18 1 293 1
573 0 5 111 1 407 1 370 1 171 1 12 1
574 0 5 112 1 112 1 334 1 40 1 39 1
575 0 5 113 1 394 1 361 1 322 1 417 1
576 0 5 114 1 72 1 15 1 305 1 69 1
577 0 5 115 1 123 1 385 1 410 1 377 1
578 0 5 116 1 1 1 127 1 242 1 416 1
579 0 5 117 1 2 1 390 1 40 1 182 1
580 0 5 118 1 356 1 173 1 215 1 110 1
581 0 5 119 1 310 1 343 1 203 1 274 1
582 0 5 120 1 201 1 188 1 208 1 184 1
583 0 5 121 1 56 1 162 1 20 1 174 1
584 0 5 122 1 214 1 64 1 152 1 132 1
585 0 5 123 1 221 1 104 1 54 1 294 1
586 0 5 124 1 184 1 41 1 406 1 120 1
587 0 5 125 1 378 1 307 1 413 1 163 1
588 0 5 126 1 189 1 232 1 418 1 9 1
589 0 5 127 1 1 1 242 1 416 1 312 1
590 0 5 128 1 117 1 68 1 405 1 2 1
591 0 5 129 1 193 1 240 1 409 1 28 1
592 0 5 130 1 282 1 389 1 216 1 144 1
593 0 5 131 1 92 1 108 1 402 1 345 1
594 0 5 132 1 262 1 295 1 384 1 61 1
595 0 5 133 1 400 1 23 1 197 1 318 1
596 0 5 134 1 157 1 33 1 325 1 375 1
597 0 5 135 1 357 1 59 1 121 1 352 1
598 0 5 136 1 113 1 394 1 199 1 361 1
599 0 5 137 1 315 1 86 1 17 1 141 1
600 0 5 138 1 177 1 264 1 3 1 130 1
601 0 5 139 1 275 1 219 1 371 1 62 1
602 0 5 140 1 302 1 373 1 131 1 108 1
603 0 5 141 1 136 1 13 1 113 1 199 1
604 0 5 142 1 57 1 241 1 291 1 224 1
605 0 5 143 1 277 1 265 1 317 1 308 1
606 0 5 144 1 331 1 338 1 236 1 389 1
607 0 5 145 1 123 1 314 1 54 1 61 1
608 0 5 146 1 101 1 1 1 209 1 210 1
609 0 5 147 1 309 1 263 1 181 1 166 1
610 0 5 148 1 47 1 216 1 130 1 282 1
611 0 5 149 1 168 1 374 1 305 1 160 1
612 0 5 150 1 376 1 98 1 423 1 256 1
613 0 5 151 1 367 1 287 1 416 1 242 1
614 0 5 152 1 323 1 64 1 24 1 325 1
615 0 5 153 1 11 1 186 1 146 1 1 1
616 0 5 154 1 148 1 47 1 264 1 177 1
617 0 5 155 1 187 1 377 1 46 1 106 1
618 0 5 156 1 228 1 377 1 348 1 187 1
619 0 5 157 1 325 1 375 1 33 1 206 1
620 0 5 158 1 30 1 13 1 256 1 34 1
621 0 5 159 1 290 1 284 1 169 1 406 1
622 0 5 160 1 223 1 75 1 70 1 103 1
623 0 5 161 1 6 1 259 1 385 1 410 1
624 0 5 162 1 174 1 234 1 20 1 194 1
625 0 5 163 1 248 1 118 1 27 1 356 1
626 0 5 164 1 412 1 330 1 164 1 337 1
627 0 5 165 1 379 1 149 1 269 1 419 1
628 0 5 166 1 267 1 311 1 93 1 333 1
629 0 5 167 1 90 1 154 1 385 1 410 1
630 0 5 168 1 374 1 341 1 223 1 103 1
631 0 5 169 1 321 1 353 1 163 1 283 1
632 0 5 170 1 213 1 48 1 158 1 10 1
633 0 5 171 1 139 1 275 1 12 1 219 1
634 0 5 172 1 249 1 280 1 109 1 141 1
635 0 5 173 1 110 1 215 1 356 1 227 1
636 0 5 174 1 234 1 122 1 194 1 271 1
637 0 5 175 1 190 1 291 1 235 1 28 1
638 0 5 176 1 185 1 301 1 100 1 207 1
639 0 5 177 1 264 1 130 1 282 1 385 1
640 0 5 178 1 329 1 303 1 86 1 71 1
641 0 5 179 1 7 1 212 1 289 1 114 1
642 0 5 180 1 181 1 309 1 166 1 340 1
643 0 5 181 1 55 1 95 1 311 1 267 1
644 0 5 182 1 52 1 404 1 50 1 260 1
645 0 5 183 1 224 1 276 1 191 1 36 1
646 0 5 184 1 41 1 406 1 353 1 321 1
647 0 5 185 1 100 1 258 1 207 1 373 1
648 0 5 186 1 210 1 218 1 209 1 1 1
649 0 5 187 1 377 1 46 1 233 1 348 1
650 0 5 188 1 208 1 342 1 283 1 351 1
651 0 5 189 1 232 1 79 1 263 1 401 1
652 0 5 190 1 235 1 28 1 409 1 251 1
653 0 5 191 1 5 1 111 1 171 1 370 1
654 0 5 192 1 37 1 420 1 352 1 285 1
655 0 5 193 1 240 1 244 1 172 1 409 1
656 0 5 194 1 271 1 122 1 152 1 64 1
657 0 5 195 1 421 1 68 1 112 1 405 1
658 0 5 196 1 359 1 204 1 217 1 73 1
659 0 5 197 1 91 1 238 1 170 1 300 1
660 0 5 198 1 82 1 247 1 415 1 313 1
661 0 5 199 1 361 1 394 1 250 1 29 1
662 0 5 200 1 386 1 145 1 336 1 304 1
663 0 5 201 1 188 1 208 1 342 1 184 1
664 0 5 202 1 303 1 71 1 329 1 86 1
665 0 5 203 1 382 1 396 1 155 1 156 1
666 0 5 204 1 73 1 398 1 293 1 43 1
667 0 5 205 1 230 1 94 1 297 1 83 1
668 0 5 206 1 257 1 51 1 121 1 339 1
669 0 5 207 1 355 1 84 1 102 1 218 1
670 0 5 208 1 342 1 274 1 286 1 229 1
671 0 5 209 1 65 1 270 1 344 1 218 1
672 0 5 210 1 218 1 84 1 89 1 1 1
673 0 5 211 1 134 1 63 1 39 1 271 1
674 0 5 212 1 114 1 289 1 72 1 15 1
675 0 5 213 1 158 1 10 1 30 1 13 1
676 0 5 214 1 64 1 323 1 132 1 262 1
677 0 5 215 1 327 1 227 1 18 1 293 1
678 0 5 216 1 144 1 331 1 389 1 338 1
679 0 5 217 1 335 1 43 1 229 1 398 1
680 0 5 218 1 89 1 287 1 1 1 151 1
681 0 5 219 1 62 1 371 1 237 1 253 1
682 0 5 220 1 306 1 238 1 220 1 197 1
683 0 5 221 1 104 1 294 1 296 1 255 1
684 0 5 222 1 81 1 316 1 152 1 64 1
685 0 5 223 1 70 1 103 1 78 1 358 1
686 0 5 224 1 36 1 276 1 191 1 111 1
687 0 5 225 1 231 1 35 1 198 1 44 1
688 0 5 226 1 126 1 189 1 418 1 9 1
689 0 5 227 1 229 1 293 1 76 1 124 1
690 0 5 228 1 105 1 159 1 290 1 284 1
691 0 5 229 1 76 1 124 1 184 1 120 1
692 0 5 230 1 94 1 83 1 25 1 200 1
693 0 5 231 1 35 1 44 1 198 1 261 1
694 0 5 232 1 79 1 279 1 388 1 85 1
695 0 5 233 1 120 1 201 1 124 1 188 1
696 0 5 234 1 122 1 271 1 64 1 152 1
697 0 5 235 1 251 1 99 1 346 1 370 1
698 0 5 236 1 349 1 338 1 45 1 6 1
699 0 5 237 1 183 1 291 1 142 1 57 1
700 0 5 238 1 170 1 300 1 213 1 48 1
701 0 5 239 1 19 1 342 1 286 1 43 1
702 0 5 240 1 244 1 172 1 249 1 53 1
703 0 5 241 1 276 1 224 1 191 1 36 1
704 0 5 242 1 312 1 416 1 21 1 77 1
705 0 5 243 1 246 1 397 1 128 1 66 1
706 0 5 244 1 172 1 249 1 280 1 109 1
707 0 5 245 1 272 1 391 1 175 1 253 1
708 0 5 246 1 128 1 66 1 68 1 117 1
709 0 5 247 1 313 1 415 1 380 1 418 1
710 0 5 248 1 118 1 27 1 351 1 356 1
711 0 5 249 1 109 1 363 1 141 1 136 1
712 0 5 250 1 29 1 417 1 220 1 306 1
713 0 5 251 1 99 1 346 1 235 1 58 1
714 0 5 252 1 364 1 397 1 308 1 195 1
715 0 5 253 1 142 1 183 1 291 1 57 1
716 0 5 254 1 60 1 179 1 212 1 328 1
717 0 5 255 1 360 1 162 1 297 1 174 1
718 0 5 256 1 98 1 34 1 250 1 376 1
719 0 5 257 1 339 1 56 1 383 1 20 1
720 0 5 258 1 8 1 102 1 355 1 34 1
721 0 5 259 1 167 1 90 1 385 1 410 1
722 0 5 260 1 243 1 308 1 246 1 265 1
723 0 5 261 1 320 1 418 1 9 1 388 1
724 0 5 262 1 295 1 384 1 294 1 51 1
725 0 5 263 1 340 1 166 1 311 1 267 1
726 0 5 264 1 130 1 282 1 216 1 389 1
727 0 5 265 1 308 1 317 1 243 1 252 1
728 0 5 266 1 74 1 133 1 31 1 400 1
729 0 5 267 1 93 1 333 1 42 1 225 1
730 0 5 268 1 241 1 392 1 254 1 191 1
731 0 5 269 1 147 1 180 1 309 1 85 1
732 0 5 270 1 1 1 344 1 287 1 411 1
733 0 5 271 1 152 1 64 1 323 1 214 1
734 0 5 272 1 391 1 175 1 190 1 253 1
735 0 5 273 1 362 1 396 1 215 1 156 1
736 0 5 274 1 366 1 204 1 173 1 110 1
737 0 5 275 1 371 1 62 1 253 1 142 1
738 0 5 276 1 191 1 36 1 5 1 224 1
739 0 5 277 1 317 1 265 1 308 1 252 1
740 0 5 278 1 67 1 399 1 8 1 127 1
741 0 5 279 1 388 1 85 1 198 1 324 1
742 0 5 280 1 141 1 315 1 136 1 17 1
743 0 5 281 1 140 1 81 1 302 1 316 1
744 0 5 282 1 389 1 144 1 236 1 331 1
745 0 5 283 1 351 1 248 1 27 1 118 1
746 0 5 284 1 169 1 41 1 406 1 321 1
747 0 5 285 1 222 1 316 1 81 1 271 1
748 0 5 286 1 196 1 359 1 366 1 204 1
749 0 5 287 1 1 1 164 1 422 1 4 1
750 0 5 288 1 28 1 409 1 129 1 193 1
751 0 5 289 1 15 1 72 1 69 1 305 1
752 0 5 290 1 284 1 169 1 406 1 41 1
753 0 5 291 1 224 1 276 1 36 1 191 1
754 0 5 292 1 133 1 322 1 400 1 394 1
755 0 5 293 1 229 1 76 1 124 1 184 1
756 0 5 294 1 255 1 51 1 360 1 162 1
757 0 5 295 1 121 1 51 1 56 1 162 1
758 0 5 296 1 205 1 360 1 230 1 297 1
759 0 5 297 1 83 1 94 1 200 1 25 1
760 0 5 298 1 107 1 319 1 337 1 320 1
761 0 5 299 1 354 1 260 1 31 1 97 1
762 0 5 300 1 48 1 10 1 213 1 158 1
763 0 5 301 1 258 1 100 1 8 1 207 1
764 0 5 302 1 373 1 108 1 131 1 402 1
765 0 5 303 1 71 1 86 1 88 1 381 1
766 0 5 304 1 123 1 336 1 314 1 54 1
767 0 5 305 1 160 1 395 1 223 1 75 1
768 0 5 306 1 300 1 170 1 48 1 10 1
769 0 5 307 1 273 1 362 1 396 1 307 1
770 0 5 308 1 397 1 252 1 364 1 66 1
771 0 5 309 1 166 1 181 1 340 1 267 1
772 0 5 310 1 343 1 203 1 362 1 366 1
773 0 5 311 1 93 1 333 1 42 1 225 1
774 0 5 312 1 77 1 21 1 16 1 38 1
775 0 5 313 1 380 1 9 1 387 1 180 1
776 0 5 314 1 54 1 132 1 61 1 262 1
777 0 5 315 1 17 1 381 1 53 1 408 1
778 0 5 316 1 402 1 131 1 108 1 81 1
779 0 5 317 1 252 1 308 1 397 1 364 1
780 0 5 318 1 137 1 329 1 303 1 280 1
781 0 5 319 1 146 1 101 1 186 1 11 1
782 0 5 320 1 418 1 9 1 401 1 147 1
783 0 5 321 1 163 1 283 1 248 1 351 1
784 0 5 322 1 197 1 417 1 238 1 220 1
785 0 5 323 1 206 1 295 1 24 1 135 1
786 0 5 324 1 226 1 313 1 415 1 126 1
787 0 5 325 1 206 1 295 1 257 1 323 1
788 0 5 326 1 278 1 67 1 8 1 399 1
789 0 5 327 1 293 1 76 1 18 1 284 1
790 0 5 328 1 179 1 60 1 254 1 7 1
791 0 5 329 1 86 1 71 1 315 1 381 1
792 0 5 330 1 298 1 107 1 337 1 261 1
793 0 5 331 1 338 1 161 1 6 1 236 1
794 0 5 332 1 116 1 127 1 1 1 98 1
795 0 5 333 1 42 1 225 1 231 1 35 1
796 0 5 334 1 39 1 134 1 63 1 157 1
797 0 5 335 1 43 1 233 1 120 1 201 1
798 0 5 336 1 87 1 123 1 314 1 54 1
799 0 5 337 1 153 1 11 1 1 1 186 1
800 0 5 338 1 161 1 6 1 385 1 259 1
801 0 5 339 1 383 1 20 1 211 1 174 1
802 0 5 340 1 311 1 267 1 93 1 333 1
803 0 5 341 1 365 1 268 1 103 1 57 1
804 0 5 342 1 274 1 366 1 196 1 204 1
805 0 5 343 1 203 1 382 1 362 1 366 1
806 0 5 344 1 1 1 411 1 164 1 287 1
807 0 5 345 1 350 1 357 1 192 1 37 1
808 0 5 346 1 49 1 58 1 403 1 370 1
809 0 5 347 1 22 1 119 1 310 1 43 1
810 0 5 348 1 3 1 125 1 378 1 228 1
811 0 5 349 1 45 1 115 1 304 1 145 1
812 0 5 350 1 192 1 37 1 420 1 59 1
813 0 5 351 1 27 1 118 1 173 1 356 1
814 0 5 352 1 285 1 222 1 194 1 271 1
815 0 5 353 1 283 1 163 1 351 1 248 1
816 0 5 354 1 97 1 31 1 414 1 260 1
817 0 5 355 1 84 1 218 1 151 1 89 1
818 0 5 356 1 215 1 110 1 173 1 327 1
819 0 5 357 1 59 1 350 1 192 1 352 1
820 0 5 358 1 328 1 254 1 179 1 60 1
821 0 5 359 1 217 1 335 1 398 1 73 1
822 0 5 360 1 297 1 83 1 200 1 132 1
823 0 5 361 1 250 1 29 1 417 1 220 1
824 0 5 362 1 396 1 156 1 215 1 106 1
825 0 5 363 1 32 1 288 1 199 1 113 1
826 0 5 364 1 195 1 421 1 68 1 112 1
827 0 5 365 1 268 1 241 1 392 1 276 1
828 0 5 366 1 204 1 110 1 73 1 173 1
829 0 5 367 1 242 1 416 1 312 1 422 1
830 0 5 368 1 165 1 379 1 149 1 268 1
831 0 5 369 1 326 1 278 1 67 1 127 1
832 0 5 370 1 12 1 139 1 219 1 62 1
833 0 5 371 1 253 1 237 1 142 1 183 1
834 0 5 372 1 323 1 24 1 143 1 277 1
835 0 5 373 1 131 1 108 1 402 1 92 1
836 0 5 374 1 341 1 365 1 223 1 70 1
837 0 5 375 1 143 1 277 1 265 1 317 1
838 0 5 376 1 423 1 98 1 34 1 242 1
839 0 5 377 1 348 1 410 1 3 1 125 1
840 0 5 378 1 413 1 307 1 273 1 163 1
841 0 5 379 1 149 1 168 1 269 1 305 1
842 0 5 380 1 387 1 180 1 401 1 263 1
843 0 5 381 1 266 1 299 1 74 1 133 1
844 0 5 382 1 155 1 187 1 106 1 156 1
845 0 5 383 1 211 1 194 1 234 1 334 1
846 0 5 384 1 51 1 255 1 121 1 162 1
847 0 5 385 1 138 1 410 1 377 1 177 1
848 0 5 386 1 336 1 304 1 87 1 123 1
849 0 5 387 1 180 1 181 1 309 1 263 1
850 0 5 388 1 85 1 198 1 82 1 324 1
851 0 5 389 1 236 1 349 1 331 1 338 1
852 0 5 390 1 182 1 52 1 404 1 50 1
853 0 5 391 1 175 1 190 1 288 1 235 1
854 0 5 392 1 368 1 254 1 165 1 127 1
855 0 5 393 1 281 1 140 1 81 1 316 1
856 0 5 394 1 361 1 322 1 417 1 220 1
857 0 5 395 1 75 1 223 1 78 1 358 1
858 0 5 396 1 156 1 106 1 155 1 187 1
859 0 5 397 1 66 1 364 1 195 1 68 1
860 0 5 398 1 43 1 229 1 233 1 124 1
861 0 5 399 1 332 1 116 1 1 1 127 1
862 0 5 400 1 23 1 96 1 318 1 137 1
863 0 5 401 1 263 1 309 1 340 1 166 1
864 0 5 402 1 135 1 345 1 92 1 357 1
865 0 5 403 1 245 1 272 1 219 1 58 1
866 0 5 404 1 260 1 265 1 97 1 414 1
867 0 5 405 1 40 1 334 1 63 1 134 1
868 0 5 406 1 353 1 321 1 283 1 163 1
869 0 5 407 1 12 1 219 1 139 1 275 1
870 0 5 408 1 292 1 394 1 133 1 400 1
871 0 5 409 1 129 1 409 1 193 1 240 1
872 0 5 410 1 138 1 410 1 177 1 377 1
873 0 5 411 1 330 1 412 1 164 1 337 1
874 0 5 412 1 298 1 107 1 337 1 261 1
875 0 5 413 1 273 1 362 1 396 1 307 1
876 0 5 414 1 26 1 414 1 96 1 202 1
877 0 5 415 1 380 1 415 1 9 1 387 1
878 0 5 416 1 77 1 21 1 16 1 312 1
879 0 5 417 1 306 1 238 1 197 1 220 1
880 0 5 418 1 401 1 263 1 9 1 309 1
881 0 5 419 1 147 1 180 1 309 1 85 1
882 0 5 420 1 393 1 281 1 222 1 302 1
883 0 5 421 1 334 1 40 1 39 1 112 1
884 0 5 422 1 176 1 337 1 185 1 153 1
885 0 5 423 1 98 1 376 1 242 1 416 1
886 0 5 424 0 462 1 461 1 460 1 459 1
887 0 5 425 0 462 1 461 1 460 1 459 1
888 0 5 426 0 462 1 461 1 460 1 459 1
889 0 5 427 0 462 1 461 1 460 1 459 1
890 0 5 428 0 462 1 461 1 460 1 459 1
891 0 5 429 0 462 1 461 1 460 1 459 1
892 0 5 430 0 462 1 461 1 460 1 459 1
893 0 5 431 0 462 1 461 1 460 1 459 1
894 0 5 432 0 462 1 461 1 460 1 459 1
895 0 5 433 0 462 1 461 1 460 1 459 1
896 0 5 434 0 462 1 461 1 460 1 459 1
897 0 5 435 0 462 1 461 1 460 1 459 1
898 0 5 436 0 462 1 461 1 460 1 459 1
899 0 5 437 0 462 1 461 1 460 1 459 1
900 0 5 438 0 462 1 461 1 460 1 459 1
901 0 5 439 0 462 1 461 1 460 1 459 1
902 0 5 440 0 462 1 461 1 460 1 459 1
903 0 5 441 0 462 1 461 1 460 1 459 1
904 0 5 442 0 462 1 461 1 460 1 459 1
905 0 5 443 0 462 1 461 1 460 1 459 1
906 0 5 444 0 462 1 461 1 460 1 459 1
907 0 5 445 0 462 1 461 1 460 1 459 1
908 0 5 446 0 462 1 461 1 460 1 459 1
909 0 5 447 0 462 1 461 1 460 1 459 1
910 0 5 448 0 462 1 461 1 460 1 459 1
911 0 5 449 0 462 1 461 1 460 1 459 1
912 0 5 450 0 462 1 461 1 460 1 459 1
913 0 5 451 0 462 1 461 1 460 1 459 1
914 0 5 452 0 462 1 461 1 460 1 459 1
915 0 5 453 0 462 1 461 1 460 1 459 1
916 0 5 454 0 462 1 461 1 460 1 459 1
917 0 5 455 0 462 1 461 1 460 1 459 1
918 0 5 456 0 462 1 461 1 460 1 459 1
919 0 5 457 0 462 1 461 1 460 1 459 1
920 0 5 458 0 462 1 461 1 460 1 459 1
921 0 5 459 0 462 1 461 1 460 1 459 1
922 0 5 460 0 462 1 461 1 460 1 459 1
923 0 5 461 0 462 1 461 1 460 1 459 1
924 0 5 462 0 462 1 461 1 460 1 459 1
-1
EOF
